NAME: cum40.tsp
TYPE: TSP
COMMENT: User-generated TSP file
DIMENSION: 200
EDGE_WEIGHT_TYPE: EUC_2D
NODE_COORD_SECTION
1 16.0 14.0
2 109.0 186.0
3 120.0 53.0
4 175.0 101.0
5 71.0 64.0
6 199.0 34.0
7 98.0 168.0
8 120.0 99.0
9 165.0 47.0
10 115.0 185.0
11 196.0 137.0
12 164.0 120.0
13 48.0 42.0
14 60.0 166.0
15 143.0 129.0
16 67.0 113.0
17 151.0 11.0
18 66.0 46.0
19 94.0 152.0
20 97.0 134.0
21 187.0 85.0
22 78.0 103.0
23 86.0 177.0
24 175.0 17.0
25 182.0 54.0
26 146.0 57.0
27 28.0 18.0
28 36.0 149.0
29 69.0 166.0
30 122.0 92.0
31 127.0 7.0
32 116.0 29.0
33 119.0 181.0
34 104.0 200.0
35 104.0 3.0
36 44.0 28.0
37 142.0 169.0
38 106.0 92.0
39 169.0 68.0
40 153.0 156.0
41 8.0 8.0
42 141.0 130.0
43 47.0 5.0
44 85.0 181.0
45 162.0 171.0
46 181.0 103.0
47 102.0 91.0
48 13.0 161.0
49 45.0 142.0
50 68.0 20.0
51 169.0 163.0
52 73.0 1.0
53 100.0 144.0
54 97.0 185.0
55 32.0 94.0
56 78.0 35.0
57 116.0 60.0
58 11.0 138.0
59 70.0 65.0
60 85.0 95.0
61 184.0 100.0
62 72.0 200.0
63 131.0 40.0
64 102.0 126.0
65 188.0 81.0
66 99.0 34.0
67 104.0 14.0
68 173.0 90.0
69 50.0 55.0
70 30.0 131.0
71 179.0 80.0
72 125.0 95.0
73 175.0 199.0
74 89.0 96.0
75 84.0 96.0
76 200.0 26.0
77 89.0 187.0
78 91.0 107.0
79 143.0 35.0
80 189.0 122.0
81 197.0 6.0
82 19.0 23.0
83 86.0 33.0
84 155.0 115.0
85 21.0 80.0
86 52.0 27.0
87 136.0 33.0
88 23.0 25.0
89 159.0 156.0
90 150.0 66.0
91 102.0 187.0
92 98.0 171.0
93 2.0 37.0
94 66.0 8.0
95 197.0 82.0
96 17.0 43.0
97 148.0 162.0
98 153.0 33.0
99 39.0 114.0
100 21.0 69.0
101 111.0 71.0
102 136.0 158.0
103 121.0 25.0
104 133.0 200.0
105 43.0 7.0
106 17.0 91.0
107 85.0 153.0
108 131.0 75.0
109 28.0 40.0
110 31.0 149.0
111 24.0 89.0
112 105.0 193.0
113 94.0 114.0
114 5.0 81.0
115 23.0 116.0
116 191.0 35.0
117 38.0 84.0
118 151.0 152.0
119 156.0 135.0
120 188.0 94.0
121 5.0 118.0
122 57.0 51.0
123 148.0 151.0
124 32.0 7.0
125 156.0 137.0
126 182.0 76.0
127 70.0 88.0
128 84.0 142.0
129 99.0 92.0
130 187.0 20.0
131 116.0 164.0
132 27.0 108.0
133 10.0 138.0
134 117.0 160.0
135 112.0 53.0
136 160.0 111.0
137 198.0 81.0
138 169.0 45.0
139 54.0 53.0
140 62.0 9.0
141 118.0 68.0
142 87.0 50.0
143 4.0 124.0
144 59.0 37.0
145 141.0 152.0
146 199.0 56.0
147 4.0 136.0
148 117.0 34.0
149 137.0 134.0
150 17.0 57.0
151 176.0 49.0
152 173.0 21.0
153 113.0 89.0
154 121.0 95.0
155 118.0 65.0
156 158.0 75.0
157 97.0 46.0
158 75.0 184.0
159 33.0 128.0
160 99.0 12.0
161 96.0 95.0
162 87.0 182.0
163 111.0 148.0
164 22.0 93.0
165 197.0 181.0
166 109.0 16.0
167 62.0 24.0
168 47.0 195.0
169 95.0 47.0
170 57.0 173.0
171 85.0 47.0
172 144.0 51.0
173 179.0 181.0
174 116.0 25.0
175 90.0 80.0
176 89.0 103.0
177 6.0 127.0
178 117.0 26.0
179 55.0 79.0
180 18.0 38.0
181 160.0 171.0
182 172.0 59.0
183 55.0 81.0
184 25.0 89.0
185 48.0 186.0
186 57.0 38.0
187 167.0 106.0
188 8.0 22.0
189 128.0 8.0
190 144.0 115.0
191 65.0 184.0
192 188.0 53.0
193 79.0 84.0
194 75.0 10.0
195 49.0 57.0
196 42.0 92.0
197 115.0 109.0
198 84.0 105.0
199 15.0 195.0
200 193.0 28.0
EOF

